results_rootrelaxation/bin018_070_048.srr.sol
solution status: optimal solution found
objective value:                                    2
_var2817_                         0.00480842153338121 	(obj:0)
_var2915_                          0.0669643864919116 	(obj:0)
_var2981_                           0.141474784998879 	(obj:0)
_var3002_                           0.157458040903183 	(obj:0)
_var3005_                           0.222881418340123 	(obj:1)
_var3052_                            0.28639689161214 	(obj:0)
_var3064_                          0.0659291579148338 	(obj:0)
_var3076_                          0.0129631736283188 	(obj:1)
_var3095_                           0.086193347321406 	(obj:0)
_var3097_                            0.15833297062104 	(obj:1)
_var3099_                          0.0877107304034723 	(obj:0)
_var3101_                          0.0591839488677754 	(obj:0)
_var3108_                         0.00792807206991047 	(obj:0)
_var3119_                          0.0422410991599594 	(obj:0)
_var3123_                           0.213087430046215 	(obj:0)
_var3143_                           0.052558918617099 	(obj:0)
_var3149_                           0.153869183261611 	(obj:0)
_var3154_                           0.133297588839119 	(obj:0)
_var3167_                           0.100014044468549 	(obj:0)
_var3173_                           0.477713532263241 	(obj:0)
_var3184_                          0.0443700535925771 	(obj:0)
_var3188_                          0.0601840246141254 	(obj:0)
_var3220_                           0.064546901596463 	(obj:0)
_var3228_                           0.137708155449816 	(obj:0)
_var3229_                           0.122904428734428 	(obj:1)
_var3233_                           0.103860189814632 	(obj:0)
_var3238_                         0.00478373094660729 	(obj:0)
_var3240_                           0.068294891709795 	(obj:0)
_var3241_                           0.105794395694173 	(obj:0)
_var3243_                           0.212246425887485 	(obj:1)
_var3252_                         0.00930008169729231 	(obj:0)
_var3264_                           0.292047806197096 	(obj:0)
_var3267_                         0.00195068090312933 	(obj:1)
_var3268_                           0.275721221811001 	(obj:0)
_var3269_                           0.335565023930317 	(obj:0)
_var3270_                           0.224440218718151 	(obj:0)
_var3278_                           0.366471086147835 	(obj:0)
_var3279_                          0.0619437302448554 	(obj:0)
_var3280_                           0.302678434903455 	(obj:1)
_var3281_                          0.0829654337192722 	(obj:0)
_var3286_                          0.0908086382240938 	(obj:0)
_var3291_                          0.0563409678334113 	(obj:0)
_var3294_                           0.170233721733945 	(obj:1)
_var3296_                           0.177353364925227 	(obj:0)
_var3297_                          0.0559010729041967 	(obj:1)
_var3300_                           0.223576175612426 	(obj:0)
_var3301_                          0.0898458663610871 	(obj:0)
_var3304_                          0.0682028539521129 	(obj:0)
_var3306_                          0.0626689105028561 	(obj:0)
_var3315_                          0.0749070243525402 	(obj:0)
_var3316_                         0.00317183592894954 	(obj:0)
_var3317_                           0.159858945240641 	(obj:0)
_var3318_                           0.235472532981314 	(obj:0)
_var3320_                          0.0204740875613419 	(obj:0)
_var3321_                           0.530496960107479 	(obj:0)
_var3322_                          0.0297425409224593 	(obj:0)
_var3324_                         0.00439351608366613 	(obj:0)
_var3325_                          0.0334781353846734 	(obj:0)
_var3326_                          0.0628561119707918 	(obj:0)
_var3330_                         0.00989561849721342 	(obj:0)
_var3334_                           0.197554666431441 	(obj:0)
_var3339_                          0.0312475448874796 	(obj:0)
_var3342_                          0.0181942297635233 	(obj:0)
_var3344_                           0.141184778341499 	(obj:0)
_var3346_                           0.242077103222176 	(obj:0)
_var3350_                           0.347174006886756 	(obj:0)
_var3351_                           0.103737226637545 	(obj:0)
_var3355_                          0.0325638615729188 	(obj:0)
_var3358_                            0.13040898212534 	(obj:0)
_var3363_                           0.132417255369458 	(obj:0)
_var3364_                            0.23030441398435 	(obj:0)
_var3366_                           0.278828271478536 	(obj:0)
_var3367_                         0.00338432322282278 	(obj:0)
_var3368_                          0.0298906755413917 	(obj:0)
_var3371_                          0.0449115942726564 	(obj:0)
_var3373_                           0.284029632374773 	(obj:0)
_var3374_                           0.118477324634622 	(obj:0)
_var3375_                          0.0795324379126775 	(obj:0)
_var3379_                          0.0359749291099912 	(obj:1)
_var3381_                         0.000351043658978173 	(obj:0)
_var3383_                           0.120481893121235 	(obj:0)
_var3384_                           0.315106838619002 	(obj:0)
_var3386_                            0.29035172078935 	(obj:0)
_var3387_                           0.239619395593112 	(obj:0)
_var3388_                          0.0113363056929843 	(obj:0)
_var3390_                          0.0671510203715869 	(obj:0)
_var3391_                          0.0832097017258721 	(obj:0)
_var3392_                          0.0235684678296103 	(obj:0)
_var3393_                          0.0656294184242516 	(obj:0)
_var3395_                           0.529908489662715 	(obj:0)
_var3396_                           0.280469690053617 	(obj:0)
_var3399_                           0.102307478785617 	(obj:1)
_var3401_                          0.0713211162647588 	(obj:0)
_var3402_                          0.0104315173472854 	(obj:0)
_var3404_                          0.0308399707920656 	(obj:0)
_var3407_                           0.103689735103988 	(obj:0)
_var3408_                           0.212775880248189 	(obj:0)
_var3409_                          0.0534564103458908 	(obj:0)
_var3410_                           0.286900841389957 	(obj:0)
_var3414_                          0.0549280399008814 	(obj:0)
_var3415_                           0.151113516805915 	(obj:0)
_var3416_                          0.0897817418224864 	(obj:1)
_var3417_                            0.05280754534687 	(obj:0)
_var3419_                           0.189702615265077 	(obj:0)
_var3422_                           0.161614164091048 	(obj:0)
_var3424_                           0.304205093857775 	(obj:0)
_var3427_                            0.13393377254492 	(obj:0)
_var3428_                          0.0506077560136815 	(obj:0)
_var3431_                           0.151627962283051 	(obj:0)
_var3433_                          0.0659291579148338 	(obj:1)
_var3434_                          0.0195264433124758 	(obj:0)
_var3435_                          0.0293920256439681 	(obj:0)
_var3437_                         0.00490826475250422 	(obj:1)
_var3438_                           0.129711833033137 	(obj:0)
_var3440_                         0.00282132065045956 	(obj:0)
_var3441_                             0.0562035820177 	(obj:0)
_var3442_                           0.111369736068942 	(obj:0)
_var3443_                         0.00831069011208852 	(obj:0)
_var3444_                          0.0424034643971994 	(obj:0)
_var3445_                           0.206537682477583 	(obj:0)
_var3446_                           0.111010880416189 	(obj:0)
_var3447_                          0.0372409242635926 	(obj:1)
_var3449_                          0.0733265065000922 	(obj:0)
_var3450_                          0.0191612707540478 	(obj:1)
_var3451_                          0.0624885091080834 	(obj:0)
_var3452_                           0.144256506112336 	(obj:0)
_var3453_                         0.00338432322282295 	(obj:0)
_var3455_                          0.0619674631444622 	(obj:0)
_var3456_                          0.0606089002867814 	(obj:0)
_var3460_                          0.0123496034470689 	(obj:0)
_var3461_                          0.0951251384891274 	(obj:0)
_var3462_                          0.0713211162647588 	(obj:0)
_var3464_                         0.00813649532436141 	(obj:1)
_var3465_                          0.0445504810066884 	(obj:0)
_var3467_                           0.228373240552616 	(obj:1)
_var3468_                          0.0159470733638911 	(obj:0)
_var3469_                          0.0286280468438874 	(obj:0)
_var3470_                           0.115277773776943 	(obj:1)
_var3471_                          0.0155417940036206 	(obj:0)
_var3472_                          0.0332863757788874 	(obj:0)
_var3475_                           0.297509230221041 	(obj:0)
_var3476_                           0.139840535813201 	(obj:0)
_var3477_                          0.0422410991599597 	(obj:0)
_var3480_                          0.0328163952868853 	(obj:1)
_var3482_                           0.105444731316455 	(obj:0)
_var3486_                          0.0532358078574828 	(obj:0)
_var3487_                          0.0267999804461566 	(obj:0)
_var3492_                          0.0682608512650726 	(obj:0)
_var3494_                          0.0251694053157716 	(obj:0)
